c Arquivo convertido de can__187.mtx
p edge 187 652
e 1 2
e 1 32
e 1 33
e 1 34
e 1 64
e 2 3
e 2 33
e 2 34
e 2 35
e 3 4
e 3 34
e 3 35
e 3 36
e 4 5
e 4 35
e 4 36
e 4 37
e 5 6
e 5 36
e 5 37
e 5 38
e 6 7
e 6 37
e 6 38
e 6 39
e 7 8
e 7 38
e 7 39
e 7 40
e 8 9
e 8 39
e 8 40
e 8 41
e 9 10
e 9 40
e 9 41
e 9 42
e 10 11
e 10 41
e 10 42
e 10 43
e 11 12
e 11 42
e 11 43
e 11 44
e 12 13
e 12 43
e 12 44
e 12 45
e 13 14
e 13 44
e 13 45
e 13 46
e 14 15
e 14 45
e 14 46
e 14 47
e 15 16
e 15 46
e 15 47
e 15 48
e 15 49
e 16 17
e 16 47
e 16 48
e 16 49
e 17 18
e 17 48
e 17 49
e 17 50
e 18 19
e 18 49
e 18 50
e 18 51
e 19 20
e 19 50
e 19 51
e 19 52
e 20 21
e 20 51
e 20 52
e 20 53
e 21 22
e 21 52
e 21 53
e 21 54
e 22 23
e 22 53
e 22 54
e 22 55
e 23 24
e 23 54
e 23 55
e 23 56
e 24 25
e 24 55
e 24 56
e 24 57
e 25 26
e 25 56
e 25 57
e 25 58
e 26 27
e 26 57
e 26 58
e 26 59
e 27 28
e 27 58
e 27 59
e 27 60
e 28 29
e 28 59
e 28 60
e 28 61
e 29 30
e 29 60
e 29 61
e 29 62
e 30 31
e 30 61
e 30 62
e 30 63
e 31 32
e 31 62
e 31 63
e 31 64
e 32 33
e 32 63
e 32 64
e 33 34
e 33 64
e 33 65
e 33 66
e 33 96
e 34 35
e 34 65
e 34 66
e 34 67
e 35 36
e 35 66
e 35 67
e 35 68
e 36 37
e 36 67
e 36 68
e 36 69
e 37 38
e 37 68
e 37 69
e 37 70
e 38 39
e 38 69
e 38 70
e 38 71
e 39 40
e 39 70
e 39 71
e 39 72
e 40 41
e 40 71
e 40 72
e 40 73
e 41 42
e 41 72
e 41 73
e 41 74
e 42 43
e 42 73
e 42 74
e 42 75
e 43 44
e 43 74
e 43 75
e 43 76
e 44 45
e 44 75
e 44 76
e 44 77
e 45 46
e 45 76
e 45 77
e 45 78
e 46 47
e 46 77
e 46 78
e 46 79
e 47 48
e 47 78
e 47 79
e 47 80
e 48 49
e 48 79
e 48 80
e 48 81
e 49 50
e 49 80
e 49 81
e 49 82
e 50 51
e 50 81
e 50 82
e 50 83
e 51 52
e 51 82
e 51 83
e 51 84
e 52 53
e 52 83
e 52 84
e 52 85
e 53 54
e 53 84
e 53 85
e 53 86
e 54 55
e 54 85
e 54 86
e 54 87
e 55 56
e 55 86
e 55 87
e 55 88
e 56 57
e 56 87
e 56 88
e 56 89
e 57 58
e 57 88
e 57 89
e 57 90
e 58 59
e 58 89
e 58 90
e 58 91
e 59 60
e 59 90
e 59 91
e 59 92
e 60 61
e 60 91
e 60 92
e 60 93
e 61 62
e 61 92
e 61 93
e 61 94
e 62 63
e 62 93
e 62 94
e 62 95
e 63 64
e 63 94
e 63 95
e 63 96
e 64 65
e 64 95
e 64 96
e 65 66
e 65 96
e 65 97
e 65 98
e 65 128
e 66 67
e 66 97
e 66 98
e 66 99
e 67 68
e 67 98
e 67 99
e 67 100
e 68 69
e 68 99
e 68 100
e 68 101
e 69 70
e 69 100
e 69 101
e 69 102
e 70 71
e 70 101
e 70 102
e 70 103
e 71 72
e 71 102
e 71 103
e 71 104
e 72 73
e 72 103
e 72 104
e 72 105
e 73 74
e 73 104
e 73 105
e 73 106
e 74 75
e 74 105
e 74 106
e 74 107
e 75 76
e 75 106
e 75 107
e 75 108
e 76 77
e 76 107
e 76 108
e 76 109
e 77 78
e 77 108
e 77 109
e 77 110
e 78 79
e 78 109
e 78 110
e 78 111
e 79 80
e 79 110
e 79 111
e 79 112
e 80 81
e 80 111
e 80 112
e 80 113
e 81 82
e 81 112
e 81 113
e 81 114
e 82 83
e 82 113
e 82 114
e 82 115
e 83 84
e 83 114
e 83 115
e 83 116
e 84 85
e 84 115
e 84 116
e 84 117
e 85 86
e 85 116
e 85 117
e 85 118
e 86 87
e 86 117
e 86 118
e 86 119
e 87 88
e 87 118
e 87 119
e 87 120
e 88 89
e 88 119
e 88 120
e 88 121
e 89 90
e 89 120
e 89 121
e 89 122
e 90 91
e 90 121
e 90 122
e 90 123
e 91 92
e 91 122
e 91 123
e 91 124
e 92 93
e 92 123
e 92 124
e 92 125
e 93 94
e 93 124
e 93 125
e 93 126
e 94 95
e 94 125
e 94 126
e 94 127
e 95 96
e 95 126
e 95 127
e 95 128
e 96 97
e 96 127
e 96 128
e 97 98
e 97 128
e 97 129
e 97 130
e 97 160
e 98 99
e 98 129
e 98 130
e 98 131
e 99 100
e 99 130
e 99 131
e 99 132
e 100 101
e 100 131
e 100 132
e 100 133
e 101 102
e 101 132
e 101 133
e 101 134
e 102 103
e 102 133
e 102 134
e 102 135
e 103 104
e 103 134
e 103 135
e 103 136
e 104 105
e 104 135
e 104 136
e 104 137
e 105 106
e 105 136
e 105 137
e 105 138
e 106 107
e 106 137
e 106 138
e 106 139
e 107 108
e 107 138
e 107 139
e 107 140
e 108 109
e 108 139
e 108 140
e 108 141
e 109 110
e 109 140
e 109 141
e 109 142
e 110 111
e 110 141
e 110 142
e 110 143
e 111 112
e 111 142
e 111 143
e 111 144
e 112 113
e 112 143
e 112 144
e 112 145
e 113 114
e 113 144
e 113 145
e 113 146
e 114 115
e 114 145
e 114 146
e 114 147
e 115 116
e 115 146
e 115 147
e 115 148
e 116 117
e 116 147
e 116 148
e 116 149
e 117 118
e 117 148
e 117 149
e 117 150
e 118 119
e 118 149
e 118 150
e 118 151
e 119 120
e 119 150
e 119 151
e 119 152
e 120 121
e 120 151
e 120 152
e 120 153
e 121 122
e 121 152
e 121 153
e 121 154
e 122 123
e 122 153
e 122 154
e 122 155
e 123 124
e 123 154
e 123 155
e 123 156
e 124 125
e 124 155
e 124 156
e 124 157
e 125 126
e 125 156
e 125 157
e 125 158
e 126 127
e 126 157
e 126 158
e 126 159
e 127 128
e 127 158
e 127 159
e 127 160
e 128 129
e 128 159
e 128 160
e 129 130
e 129 160
e 130 131
e 131 132
e 131 161
e 132 133
e 132 161
e 132 162
e 133 134
e 133 161
e 133 162
e 133 163
e 134 135
e 134 162
e 134 163
e 134 164
e 135 136
e 135 163
e 135 164
e 135 165
e 136 137
e 136 164
e 136 165
e 136 166
e 137 138
e 137 165
e 137 166
e 137 167
e 138 139
e 138 166
e 138 167
e 138 168
e 139 140
e 139 167
e 139 168
e 139 169
e 140 141
e 140 168
e 140 169
e 140 170
e 141 142
e 141 169
e 141 170
e 141 171
e 142 143
e 142 170
e 142 171
e 142 172
e 143 144
e 143 171
e 143 172
e 143 173
e 144 145
e 144 172
e 144 173
e 144 174
e 145 146
e 145 173
e 145 174
e 145 175
e 146 147
e 146 174
e 146 175
e 146 176
e 147 148
e 147 175
e 147 176
e 147 177
e 148 149
e 148 176
e 148 177
e 148 178
e 149 150
e 149 177
e 149 178
e 149 179
e 150 151
e 150 178
e 150 179
e 150 180
e 151 152
e 151 179
e 151 180
e 151 181
e 152 153
e 152 180
e 152 181
e 152 182
e 153 154
e 153 181
e 153 182
e 153 183
e 154 155
e 154 182
e 154 183
e 154 184
e 155 156
e 155 183
e 155 184
e 155 185
e 156 157
e 156 184
e 156 185
e 156 186
e 157 158
e 157 185
e 157 186
e 157 187
e 158 159
e 158 186
e 158 187
e 159 160
e 159 187
e 161 162
e 162 163
e 163 164
e 164 165
e 165 166
e 166 167
e 167 168
e 168 169
e 169 170
e 170 171
e 171 172
e 172 173
e 173 174
e 174 175
e 175 176
e 176 177
e 177 178
e 178 179
e 179 180
e 180 181
e 181 182
e 182 183
e 183 184
e 184 185
e 185 186
e 186 187
